[9, 9, 9, 10, 8, 9, 8, 8, 9, 7]
0 75 4 68 17 6 51 2 0
0 45 27 29 13 5 15 57 0
0 26 12 40 58 72 39 10 0
0 73 62 1 22 43 42 41 56 0
0 44 32 9 50 25 18 0
0 67 34 46 7 52 8 35 0
0 30 74 48 28 47 21 0
0 16 3 63 49 23 24 0
0 37 36 20 69 71 70 60 0
0 53 38 14 11 65 0
